letting initialStacks = [8, 21, 16, 24, 51, 28, 6, 46, 3, 23, 9, 5, 2, 43, 39, 48, 7, 42, 20, 34, 13, 26, 19, 30, 1, 29, 15, 27, 37, 36, 25, 22, 14, 12, 38, 41, 17, 33, 47, 49, 31, 10, 35, 4, 32, 50, 45, 18, 40, 11, 44]
